387,257
627,512
654,321
829,429
611,503
829,383
540,212
898,-21
654,459
1166,563
755,178
477,806
626,235
926,-75
334,229
282,535
1125,476
875,265
981,406
713,613
741,406
998,842
727,264
742,791
281,202
326,462
657,389
444,369
649,613
441,406
975,555
771,406
1071,406
